c graph converted from Delauney Triangulation format
c weights on edges removed (lost)
x low 0.00
p edge 226 586
n 0 1.00
n 5 1.00
n 6 1.00
n 13 1.00
n 14 1.00
n 4 1.00
n 9 1.00
n 8 1.00
n 2 1.00
n 3 1.00
n 1 1.00
n 20 1.00
n 72 1.00
n 73 1.00
n 71 1.00
n 7 1.00
n 10 1.00
n 11 1.00
n 12 1.00
n 15 1.00
n 67 1.00
n 70 1.00
n 17 1.00
n 16 1.00
n 66 1.00
n 19 1.00
n 18 1.00
n 64 1.00
n 50 1.00
n 51 1.00
n 63 1.00
n 25 1.00
n 26 1.00
n 33 1.00
n 34 1.00
n 24 1.00
n 29 1.00
n 28 1.00
n 22 1.00
n 23 1.00
n 21 1.00
n 49 1.00
n 48 1.00
n 27 1.00
n 30 1.00
n 31 1.00
n 32 1.00
n 35 1.00
n 44 1.00
n 47 1.00
n 39 1.00
n 37 1.00
n 36 1.00
n 43 1.00
n 38 1.00
n 41 1.00
n 40 1.00
n 154 1.00
n 42 1.00
n 86 1.00
n 150 1.00
n 151 1.00
n 152 1.00
n 153 1.00
n 46 1.00
n 94 1.00
n 45 1.00
n 62 1.00
n 59 1.00
n 60 1.00
n 61 1.00
n 52 1.00
n 53 1.00
n 54 1.00
n 55 1.00
n 56 1.00
n 57 1.00
n 58 1.00
n 135 1.00
n 95 1.00
n 65 1.00
n 102 1.00
n 132 1.00
n 133 1.00
n 134 1.00
n 69 1.00
n 110 1.00
n 68 1.00
n 85 1.00
n 82 1.00
n 83 1.00
n 84 1.00
n 74 1.00
n 75 1.00
n 76 1.00
n 77 1.00
n 78 1.00
n 79 1.00
n 80 1.00
n 81 1.00
n 111 1.00
n 112 1.00
n 113 1.00
n 114 1.00
n 115 1.00
n 116 1.00
n 117 1.00
n 118 1.00
n 119 1.00
n 225 1.00
n 88 1.00
n 87 1.00
n 96 1.00
n 97 1.00
n 89 1.00
n 98 1.00
n 90 1.00
n 99 1.00
n 91 1.00
n 100 1.00
n 92 1.00
n 101 1.00
n 93 1.00
n 136 1.00
n 143 1.00
n 104 1.00
n 103 1.00
n 105 1.00
n 106 1.00
n 107 1.00
n 108 1.00
n 109 1.00
n 125 1.00
n 127 1.00
n 120 1.00
n 126 1.00
n 121 1.00
n 128 1.00
n 122 1.00
n 130 1.00
n 123 1.00
n 129 1.00
n 124 1.00
n 131 1.00
n 224 1.00
n 223 1.00
n 222 1.00
n 221 1.00
n 220 1.00
n 219 1.00
n 218 1.00
n 217 1.00
n 216 1.00
n 215 1.00
n 203 1.00
n 204 1.00
n 205 1.00
n 207 1.00
n 206 1.00
n 208 1.00
n 209 1.00
n 210 1.00
n 211 1.00
n 212 1.00
n 213 1.00
n 214 1.00
n 202 1.00
n 201 1.00
n 200 1.00
n 199 1.00
n 198 1.00
n 197 1.00
n 196 1.00
n 195 1.00
n 194 1.00
n 193 1.00
n 192 1.00
n 137 1.00
n 138 1.00
n 139 1.00
n 140 1.00
n 141 1.00
n 142 1.00
n 191 1.00
n 190 1.00
n 189 1.00
n 145 1.00
n 144 1.00
n 146 1.00
n 148 1.00
n 147 1.00
n 149 1.00
n 188 1.00
n 187 1.00
n 186 1.00
n 185 1.00
n 184 1.00
n 183 1.00
n 182 1.00
n 181 1.00
n 180 1.00
n 179 1.00
n 167 1.00
n 168 1.00
n 169 1.00
n 171 1.00
n 170 1.00
n 172 1.00
n 173 1.00
n 174 1.00
n 175 1.00
n 176 1.00
n 177 1.00
n 178 1.00
n 166 1.00
n 165 1.00
n 164 1.00
n 163 1.00
n 162 1.00
n 161 1.00
n 160 1.00
n 159 1.00
n 158 1.00
n 157 1.00
n 156 1.00
n 155 1.00
e 0 5
e 0 6
e 0 13
e 0 14
e 0 4
e 0 9
e 0 8
e 0 2
e 0 3
e 0 1
e 0 20
e 0 72
e 0 73
e 1 2
e 1 72
e 1 71
e 2 3
e 2 7
e 2 71
e 3 4
e 3 7
e 4 5
e 4 7
e 5 6
e 5 7
e 6 8
e 6 7
e 7 8
e 7 10
e 7 11
e 7 12
e 7 71
e 8 9
e 8 10
e 9 13
e 9 10
e 10 13
e 10 14
e 10 15
e 10 11
e 11 15
e 11 12
e 12 15
e 12 67
e 12 70
e 12 71
e 13 14
e 14 20
e 14 17
e 14 16
e 14 15
e 15 16
e 15 67
e 16 17
e 16 67
e 16 66
e 17 20
e 17 19
e 17 18
e 17 66
e 17 64
e 18 19
e 18 64
e 19 20
e 19 50
e 19 64
e 19 51
e 19 63
e 20 25
e 20 26
e 20 33
e 20 34
e 20 24
e 20 29
e 20 28
e 20 22
e 20 23
e 20 21
e 20 49
e 20 50
e 21 22
e 21 49
e 21 48
e 22 23
e 22 27
e 22 48
e 23 24
e 23 27
e 24 25
e 24 27
e 25 26
e 25 27
e 26 28
e 26 27
e 27 28
e 27 30
e 27 31
e 27 32
e 27 48
e 28 29
e 28 30
e 29 33
e 29 30
e 30 33
e 30 34
e 30 35
e 30 31
e 31 35
e 31 32
e 32 35
e 32 44
e 32 47
e 32 48
e 33 34
e 34 39
e 34 37
e 34 36
e 34 35
e 35 36
e 35 44
e 36 37
e 36 44
e 36 43
e 37 39
e 37 38
e 37 43
e 37 41
e 38 39
e 38 41
e 39 41
e 39 40
e 39 154
e 40 41
e 40 42
e 40 86
e 40 150
e 40 151
e 40 152
e 40 153
e 40 154
e 41 43
e 41 42
e 42 43
e 42 46
e 42 94
e 42 86
e 43 44
e 43 45
e 43 46
e 44 47
e 44 45
e 45 47
e 45 48
e 45 46
e 46 48
e 46 62
e 46 94
e 47 48
e 48 49
e 48 59
e 48 60
e 48 61
e 48 62
e 49 50
e 49 51
e 49 52
e 49 53
e 49 54
e 49 55
e 49 56
e 49 57
e 49 58
e 49 59
e 50 51
e 51 52
e 51 63
e 52 53
e 52 63
e 53 54
e 53 63
e 54 63
e 54 55
e 55 63
e 55 56
e 56 63
e 56 57
e 57 63
e 57 58
e 58 63
e 58 59
e 59 63
e 59 60
e 60 63
e 60 61
e 61 63
e 61 62
e 62 63
e 62 94
e 62 135
e 62 95
e 63 64
e 63 65
e 63 102
e 63 132
e 63 133
e 63 134
e 63 135
e 64 66
e 64 65
e 65 66
e 65 69
e 65 110
e 65 102
e 66 67
e 66 68
e 66 69
e 67 70
e 67 68
e 68 70
e 68 71
e 68 69
e 69 71
e 69 85
e 69 110
e 70 71
e 71 72
e 71 82
e 71 83
e 71 84
e 71 85
e 72 73
e 72 74
e 72 75
e 72 76
e 72 77
e 72 78
e 72 79
e 72 80
e 72 81
e 72 82
e 73 74
e 74 75
e 75 76
e 76 77
e 77 78
e 78 79
e 79 80
e 80 81
e 81 82
e 82 83
e 83 84
e 84 85
e 85 110
e 85 111
e 85 112
e 85 113
e 85 114
e 85 115
e 85 116
e 85 117
e 85 118
e 85 119
e 85 225
e 86 94
e 86 95
e 86 88
e 86 150
e 87 96
e 87 88
e 87 97
e 87 89
e 87 150
e 88 95
e 88 96
e 88 150
e 89 97
e 89 98
e 89 90
e 89 150
e 90 98
e 90 99
e 90 91
e 90 150
e 91 99
e 91 100
e 91 92
e 91 150
e 92 100
e 92 101
e 92 93
e 92 150
e 93 101
e 93 136
e 93 143
e 93 150
e 94 95
e 95 96
e 95 135
e 96 97
e 96 135
e 97 98
e 97 135
e 98 99
e 98 135
e 99 100
e 99 135
e 100 101
e 100 135
e 101 136
e 101 135
e 102 110
e 102 111
e 102 104
e 102 132
e 103 112
e 103 104
e 103 113
e 103 105
e 103 132
e 104 111
e 104 112
e 104 132
e 105 113
e 105 114
e 105 106
e 105 132
e 106 114
e 106 115
e 106 107
e 106 132
e 107 115
e 107 116
e 107 108
e 107 132
e 108 116
e 108 117
e 108 109
e 108 132
e 109 117
e 109 118
e 109 125
e 109 132
e 110 111
e 111 112
e 112 113
e 113 114
e 114 115
e 115 116
e 116 117
e 117 118
e 118 125
e 118 119
e 119 125
e 119 127
e 119 120
e 119 225
e 120 127
e 120 126
e 120 121
e 120 225
e 121 126
e 121 128
e 121 122
e 121 225
e 122 128
e 122 130
e 122 123
e 122 225
e 123 130
e 123 129
e 123 124
e 123 225
e 124 129
e 124 131
e 124 225
e 124 224
e 124 223
e 124 222
e 124 221
e 124 220
e 124 219
e 124 218
e 124 217
e 124 216
e 124 215
e 125 127
e 125 132
e 126 127
e 126 128
e 126 132
e 127 132
e 128 130
e 128 132
e 129 130
e 129 131
e 129 132
e 130 132
e 131 132
e 131 203
e 131 204
e 131 205
e 131 207
e 131 206
e 131 208
e 131 209
e 131 210
e 131 211
e 131 212
e 131 213
e 131 214
e 131 215
e 132 133
e 132 203
e 132 202
e 132 201
e 132 200
e 132 199
e 132 198
e 132 197
e 132 196
e 132 195
e 132 194
e 132 193
e 133 134
e 133 193
e 134 135
e 134 192
e 134 193
e 135 136
e 135 137
e 135 138
e 135 139
e 135 140
e 135 141
e 135 142
e 135 191
e 135 190
e 135 192
e 135 189
e 136 143
e 136 137
e 137 143
e 137 145
e 137 138
e 138 145
e 138 144
e 138 139
e 139 144
e 139 146
e 139 140
e 140 146
e 140 148
e 140 141
e 141 148
e 141 147
e 141 142
e 142 147
e 142 149
e 142 189
e 142 188
e 142 187
e 142 186
e 142 185
e 142 184
e 142 183
e 142 182
e 142 181
e 142 180
e 142 179
e 143 145
e 143 150
e 144 145
e 144 146
e 144 150
e 145 150
e 146 148
e 146 150
e 147 148
e 147 149
e 147 150
e 148 150
e 149 150
e 149 167
e 149 168
e 149 169
e 149 171
e 149 170
e 149 172
e 149 173
e 149 174
e 149 175
e 149 176
e 149 177
e 149 178
e 149 179
e 150 151
e 150 167
e 150 166
e 150 165
e 150 164
e 150 163
e 150 162
e 150 161
e 150 160
e 150 159
e 150 158
e 150 157
e 151 152
e 151 157
e 152 153
e 152 156
e 152 157
e 153 155
e 153 154
e 153 156
e 154 155
e 155 156
e 156 157
e 157 158
e 158 159
e 159 160
e 160 161
e 161 162
e 162 163
e 163 164
e 164 165
e 165 166
e 166 167
e 167 168
e 168 169
e 169 170
e 170 171
e 171 172
e 172 173
e 173 174
e 174 175
e 175 176
e 176 177
e 177 178
e 178 179
e 179 180
e 180 181
e 181 182
e 182 183
e 183 184
e 184 185
e 185 186
e 186 187
e 187 188
e 188 189
e 189 190
e 190 191
e 191 192
e 192 193
e 193 194
e 194 195
e 195 196
e 196 197
e 197 198
e 198 199
e 199 200
e 200 201
e 201 202
e 202 203
e 203 204
e 204 205
e 205 206
e 206 207
e 207 208
e 208 209
e 209 210
e 210 211
e 211 212
e 212 213
e 213 214
e 214 215
e 215 216
e 216 217
e 217 218
e 218 219
e 219 220
e 220 221
e 221 222
e 222 223
e 223 224
e 224 225
